Route #1: 7 30 18 14 3 10 42
Route #2: 38 9 26 13 1 12
Route #3: 40 32 28 49
Route #4: 29 35 4 23 22 33 31 41
Route #5: 15 6 2 48 17 44 19 34
Route #6: 20 8 37 11 5 21 45 36
Route #7: 25 43 24 27 16 39 46 47
cost 806.3229370117188